p tw 40 84
0 1
0 22
0 14
0 28
0 5
0 26
0 8
0 29
0 19
0 12
0 2
1 2
2 9
2 24
2 28
2 16
2 4
3 4
3 9
3 20
3 17
3 26
4 5
4 11
4 15
5 6
5 15
5 18
5 35
6 26
6 14
6 34
7 8
7 23
7 27
7 10
7 36
8 29
9 10
9 11
9 26
9 25
9 24
9 27
9 33
10 26
10 32
10 13
10 16
10 34
11 12
11 31
11 13
11 18
11 35
12 27
12 30
13 14
15 16
15 20
15 18
15 34
15 23
16 29
17 18
17 39
18 25
18 35
18 36
18 31
19 20
19 21
19 29
19 38
19 23
20 22
20 33
22 37
22 27
24 33
26 30
26 36
31 33
33 34
